&CONTROL
calculation     = 'scf'
pseudo_dir      = '../../pseudo/'
outdir          = '../tmp/'
prefix          = 'elektro'
nstep 			= 500
/
&SYSTEM
ibrav           = 0
nat             = 47
ntyp            = 2
occupations 	= 'smearing'
smearing		= 'gauss'
degauss     	= 0.02
ecutwfc         = 70
starting_magnetization(1) = 0.5
nspin	= 2
/
&ELECTRONS
mixing_beta     = 0.4
conv_thr        = 1.0d-6
electron_maxstep = 500
/
ATOMIC_SPECIES
Ti   47.86700  Ti.pbe-spn-kjpaw_psl.1.0.0.UPF
O    15.99940  O.pbe-n-kjpaw_psl.1.0.0.UPF

K_POINTS (automatic)
3 3 3 0 0 0

CELL_PARAMETERS (angstrom)
7.633122404   0.000000000   0.000000000
0.000000000   7.616327752   0.000000000
0.000000000   0.000000000   9.706351360

ATOMIC_POSITIONS (angstrom)
Ti            0.0000258540        0.0006474115        0.0058356795
Ti            0.0000604421        1.9041082054        2.4540319188
Ti            1.7904659266        1.9041084023        4.9177389124
Ti            1.9053941422       -0.0121875181        7.2919037004
O             0.0000257555        0.0215995071        2.0486886871
O             0.0000291072        1.9041085445        4.4857129234
O             1.9342871724        1.9041081950        6.8844480908
O             1.9002881461       -0.0061209743        9.2819610904
O             0.0000328123        1.9041081222        0.4639857776
O             0.0000270857        0.0240776446        7.6922565698
O             2.0305290758        0.0265276748        5.2540161859
O             2.0553380561        1.9041087297        2.9623423484
Ti            0.0000258955        3.8075687784        0.0058358616
Ti            0.0000267276        5.7122721388        2.4382381517
Ti            1.9229480406        5.7122723223        4.8396609613
Ti            1.9053940861        3.8204036154        7.2919035358
O             0.0000257181        3.7866176345        2.0486885610
O             0.0000280064        5.7122726079        4.4601548453
O             1.8603294137        5.7122720547        6.8369418754
O             1.9002881755        3.8143374767        9.2819611075
O             0.0000267166        5.7122720821        0.4464451652
O             0.0000271513        3.7841387612        7.6922564336
O             2.0305292143        3.7816894011        5.2540161627
O             1.9067356511        5.7122726080        2.8438676816
Ti            3.8165894353       -0.0488323415       -0.0453925921
Ti            3.8165851949        1.9041083790        2.2143103080
Ti            5.8427168516        1.9041085033        4.9177244435
Ti            5.7277834014       -0.0121844761        7.2919000751
O             3.8165831761       -0.0172658195        1.9643454255
O             5.6988856918        1.9041082684        6.8844446292
O             5.7328896419       -0.0061185789        9.2819617927
O             3.8165914052        1.9041083760        0.3424212734
O             3.8165889285       -0.0438876030        7.6894488177
O             5.6026550168        0.0265275926        5.2540168826
O             5.5778098241        1.9041087603        2.9623677912
Ti            3.8165893666        3.8570498066       -0.0453926424
Ti            3.8165884170        5.7122723453        2.4255084666
Ti            5.7102309526        5.7122723004        4.8396617662
Ti            5.7277834972        3.8204006606        7.2919000493
O             3.8165832828        3.8254831476        1.9643455868
O             3.8165895096        5.7122725528        4.4101886721
O             5.7728460211        5.7122720760        6.8369411661
O             5.7328896814        3.8143352098        9.2819617600
O             3.8165914751        5.7122724786        0.3770442026
O             3.8165889923        3.8521043045        7.6894488595
O             5.6026548662        3.7816895543        5.2540168649
O             5.7264400254        5.7122726904        2.8438664671

HUBBARD (ortho-atomic)
U Ti-3d 7
