&projwfc
prefix  = 'elektro'
outdir  = '../tmp/'
/
