&BANDS
 outdir  = '../tmp/'
 prefix  = 'elektro'
 filband = 'elektro.bands'
/
