&DOS
outdir = '../tmp/'
prefix = 'elektro'
fildos = 'elektro.dos'
/
