&CONTROL
calculation   	= 'nscf'
pseudo_dir      = '../../pseudo/'
outdir          = '../tmp/'
prefix          = 'elektro'

/
&SYSTEM
ibrav           = 0
nat             = 48
ntyp            = 2
occupations 	= 'tetrahedra'
ecutwfc         = 70
starting_magnetization(1) = 0.5
nspin	= 2
/
&ELECTRONS
mixing_beta     = 0.4
conv_thr        = 1.0d-6
electron_maxstep = 500
/
ATOMIC_SPECIES
Ti   47.86700  Ti.pbe-spn-kjpaw_psl.1.0.0.UPF
O    15.99940  O.pbe-n-kjpaw_psl.1.0.0.UPF

K_POINTS (automatic)
6 6 6 0 0 0

CELL_PARAMETERS {angstrom}
7.602703343   0.000000000   0.000000000
0.000000000   7.602703343   0.000000000
0.000000000   0.000000000   9.720155821

ATOMIC_POSITIONS (angstrom)
Ti            0.0000067459        0.0000067459        0.0000000000
Ti            0.0000067996        1.9007229619        2.4300425599
Ti            1.9007229822        1.9007229822        4.8600829100
Ti            1.9007229619        0.0000067996        7.2901222603
O             0.0000113623        0.0000301017        2.0063485891
O             0.0000301724        1.9007185964        4.4363917228
O             1.9007185587        1.9006998535        6.8664277588
O             1.9006997647        0.0000113422        9.2964717023
O             0.0000113422        1.9006997647        0.4236941178
O             0.0000301017        0.0000113623        7.7138162311
O             1.9007185964        0.0000301724        5.2837740973
O             1.9006998535        1.9007185587        2.8537380613
Ti            0.0000067179        3.8013584280       -0.0000000832
Ti            0.0000067542        5.7020746960        2.4300425421
Ti            1.9007229522        5.7020745878        4.8600829412
Ti            1.9007229302        3.8013583409        7.2901222373
O             0.0000113917        3.8013817655        2.0063486082
O             0.0000301278        5.7020702201        4.4363917449
O             1.9007184543        5.7020514440        6.8664275967
O             1.9006998415        3.8013630584        9.2964716069
O             0.0000113161        5.7020515487        0.4236941822
O             0.0000300756        3.8013630322        7.7138160979
O             1.9007185537        3.8013816906        5.2837740459
O             1.9006998481        5.7020701883        2.8537381422
Ti            3.8013584280        0.0000067179        0.0000000832
Ti            3.8013583409        1.9007229302        2.4300425829
Ti            5.7020745878        1.9007229522        4.8600828789
Ti            5.7020746960        0.0000067542        7.2901222781
O             3.8013630322        0.0000300756        2.0063487222
O             3.8013816906        1.9007185537        4.4363917742
O             5.7020701883        1.9006998481        6.8664276779
O             5.7020515487        0.0000113161        9.2964716379
O             3.8013630584        1.9006998415        0.4236942132
O             3.8013817655        0.0000113917        7.7138162120
O             5.7020702201        0.0000301278        5.2837740752
O             5.7020514440        1.9007184543        2.8537382233
Ti            3.8013584041        3.8013584041        0.0000000000
Ti            3.8013583320        5.7020745107        2.4300426469
Ti            5.7020746308        5.7020746308        4.8600829100
Ti            5.7020745107        3.8013583320        7.2901221732
O             3.8013630502        3.8013817820        2.0063486755
O             3.8013817150        5.7020701895        4.4363917457
O             5.7020702287        5.7020514392        6.8664276872
O             5.7020514280        3.8013630426        9.2964716150
O             3.8013630426        5.7020514280        0.4236942051
O             3.8013817820        3.8013630502        7.7138161446
O             5.7020701895        3.8013817150        5.2837740744
O             5.7020514392        5.7020702287        2.8537381329

HUBBARD (ortho-atomic)
U Ti-3d 7

